17	4
7	11	11	15	
0	0	0	0	0	3	2	3	4	
3	7	0	0	0	3	6	14	17	
10	0	8	0	0	1	17	
10	0	5	0	0	1	5	
7	0	0	10	0	1	8	
150	0	0	0	5	3	7	15	17	
225	0	0	0	4	3	13	17	17	
175	0	0	4	0	3	9	10	17	
225	0	0	0	10	1	17	
100	0	0	0	4	3	11	12	17	
100	0	0	0	9	1	17	
225	0	0	3	0	2	17	17	
7	0	9	0	0	3	16	17	17	
9	0	0	0	9	1	17	
5	0	5	0	0	2	16	17	
7	0	0	0	9	1	17	
0	0	0	0	0	0	
